444,443
593,420
655,419
709,397
761,446
766,379
635,702
1028,583
627,300
560,318
593,420
627,512
914,639
829,862
850,237
727,110
627,300
439,582
267,341
850,237
1108,545
1045,670
708,459
624,388
709,397
1108,545
1137,554
